26
1 0 16
2 0 8
2 1 10
3 0 3
3 1 17
3 2 15
4 0 5
4 1 13
4 2 19
4 3 19
5 0 19
5 1 19
5 2 9
5 3 6
5 4 17
6 0 15
6 1 6
6 2 4
6 3 7
6 4 20
6 5 18
7 0 16
7 1 9
7 2 9
7 3 10
7 4 2
7 5 8
7 6 11
8 0 2
8 1 6
8 2 11
8 3 12
8 4 20
8 5 19
8 6 20
8 7 7
9 0 11
9 1 5
9 2 1
9 3 3
9 4 2
9 5 21
9 6 21
9 7 20
9 8 12
10 0 7
10 1 19
10 2 6
10 3 7
10 4 15
10 5 21
10 6 21
10 7 13
10 8 13
10 9 16
11 0 18
11 1 7
11 2 4
11 3 12
11 4 20
11 5 13
11 6 16
11 7 21
11 8 7
11 9 19
11 10 1
12 0 7
12 1 10
12 2 4
12 3 19
12 4 13
12 5 3
12 6 12
12 7 8
12 8 8
12 9 12
12 10 5
12 11 10
13 0 11
13 1 10
13 2 18
13 3 15
13 4 2
13 5 8
13 6 13
13 7 16
13 8 10
13 9 9
13 10 13
13 11 3
13 12 21
14 0 17
14 1 5
14 2 3
14 3 14
14 4 15
14 5 10
14 6 3
14 7 12
14 8 8
14 9 9
14 10 6
14 11 2
14 12 12
14 13 17
15 0 18
15 1 14
15 2 7
15 3 20
15 4 5
15 5 4
15 6 8
15 7 12
15 8 3
15 9 1
15 10 21
15 11 14
15 12 19
15 13 5
15 14 11
16 0 18
16 1 20
16 2 14
16 3 20
16 4 2
16 5 16
16 6 14
16 7 14
16 8 4
16 9 8
16 10 18
16 11 20
16 12 10
16 13 5
16 14 9
16 15 11
17 0 8
17 1 4
17 2 7
17 3 8
17 4 21
17 5 18
17 6 7
17 7 2
17 8 13
17 9 19
17 10 20
17 11 10
17 12 19
17 13 20
17 14 2
17 15 5
17 16 10
18 0 12
18 1 16
18 2 7
18 3 18
18 4 17
18 5 13
18 6 14
18 7 13
18 8 19
18 9 7
18 10 6
18 11 18
18 12 19
18 13 5
18 14 9
18 15 10
18 16 21
18 17 8
19 0 3
19 1 15
19 2 9
19 3 8
19 4 16
19 5 2
19 6 18
19 7 2
19 8 6
19 9 14
19 10 7
19 11 19
19 12 11
19 13 7
19 14 19
19 15 6
19 16 21
19 17 3
19 18 8
20 0 3
20 1 17
20 2 9
20 3 17
20 4 12
20 5 20
20 6 5
20 7 18
20 8 8
20 9 21
20 10 13
20 11 3
20 12 2
20 13 21
20 14 10
20 15 3
20 16 19
20 17 14
20 18 19
20 19 1
21 0 12
21 1 17
21 2 4
21 3 20
21 4 3
21 5 7
21 6 10
21 7 5
21 8 18
21 9 4
21 10 6
21 11 17
21 12 14
21 13 19
21 14 15
21 15 15
21 16 7
21 17 1
21 18 16
21 19 11
21 20 11
22 0 15
22 1 5
22 2 17
22 3 11
22 4 21
22 5 2
22 6 9
22 7 15
22 8 12
22 9 9
22 10 1
22 11 2
22 12 14
22 13 2
22 14 13
22 15 9
22 16 16
22 17 15
22 18 4
22 19 5
22 20 14
22 21 3
23 0 12
23 1 19
23 2 19
23 3 18
23 4 11
23 5 8
23 6 9
23 7 19
23 8 20
23 9 1
23 10 14
23 11 10
23 12 12
23 13 6
23 14 6
23 15 15
23 16 21
23 17 6
23 18 15
23 19 20
23 20 14
23 21 9
23 22 14
24 0 4
24 1 19
24 2 8
24 3 5
24 4 9
24 5 20
24 6 21
24 7 16
24 8 10
24 9 15
24 10 16
24 11 13
24 12 1
24 13 15
24 14 17
24 15 17
24 16 4
24 17 8
24 18 9
24 19 17
24 20 15
24 21 15
24 22 2
24 23 4
25 0 6
25 1 4
25 2 9
25 3 21
25 4 10
25 5 13
25 6 6
25 7 5
25 8 20
25 9 10
25 10 2
25 11 14
25 12 19
25 13 7
25 14 5
25 15 11
25 16 17
25 17 17
25 18 16
25 19 7
25 20 2
25 21 11
25 22 21
25 23 18
25 24 13
